\ENCODING=ISO-8859-1
\Problem name: Formulacao EEEE :D

Maximize
 obj: x8 + x22 + x36
Subject To
 c1:   x1 + x13 + x19  = 1
 c2:   x2 + x8 + x26 + x32  = 1
 c3:   x3 + x9 + x15 + x27  = 1
 c4:   x4 + x10 + x16 + x22 + x34  = 1
 c5:   x5 + x11 + x17 + x23 + x29  = 1
 c6:   x12 + x24 + x36  = 1
 c7:   - x1 + x2 <= 0
 c8:   - x1 + x5 <= 0
 c9:   - x1 + x6 <= 0
 c10:  - x1 + x2 + x3 <= 0
 c11:  - x1 + x2 + x4 <= 0
 c12:  - x1 + x3 + x4 <= 0
 c13:  - x1 + x3 + x6 <= 0
 c14:  - x1 + x4 + x5 <= 0
 c15:  - x1 + x5 + x6 <= 0
 c16:  x1 - x1 + x6 <= 0
 c17:  - x1 + x3 + x6 <= 0
 c18:  - x1 + x5 + x6 <= 0
 c19:  x7 + x8 - x8 <= 0
 c20:  x7 - x8 + x11 <= 0
 c21:  x7 - x8 + x12 <= 0
 c22:  x8 - x8 + x9 <= 0
 c23:  x8 - x8 + x10 <= 0
 c24:  - x8 + x9 + x10 <= 0
 c25:  - x8 + x9 + x12 <= 0
 c26:  - x8 + x10 + x11 <= 0
 c27:  - x8 + x11 + x12 <= 0
 c28:  x7 - x8 + x12 <= 0
 c29:  - x8 + x9 + x12 <= 0
 c30:  - x8 + x11 + x12 <= 0
 c31:  x13 + x14 - x15 <= 0
 c32:  x13 - x15 + x17 <= 0
 c33:  x13 - x15 + x18 <= 0
 c34:  x14 - x15 <= 0
 c35:  x14 - x15 + x16 <= 0
 c36:  - x15 + x16 <= 0
 c37:  - x15 + x18 <= 0
 c38:  - x15 + x16 + x17 <= 0
 c39:  - x15 + x17 + x18 <= 0
 c40:  x13 - x15 + x18 <= 0
 c41:  - x15 + x18 <= 0
 c42:  - x15 + x17 + x18 <= 0
 c43:  x19 + x20 - x22 <= 0
 c44:  x19 - x22 + x23 <= 0
 c45:  x19 - x22 + x24 <= 0
 c46:  x20 + x21 - x22 <= 0
 c47:  x20 - x22 <= 0
 c48:  x21 - x22 <= 0
 c49:  x21 - x22 + x24 <= 0
 c50:  - x22 + x23 <= 0
 c51:  - x22 + x23 + x24 <= 0
 c52:  x19 - x22 + x24 <= 0
 c53:  x21 - x22 + x24 <= 0
 c54:  - x22 + x23 + x24 <= 0
 c55:  x25 + x26 - x29 <= 0
 c56:  x25 - x29 <= 0
 c57:  x25 - x29 + x30 <= 0
 c58:  x26 + x27 - x29 <= 0
 c59:  x26 + x28 - x29 <= 0
 c60:  x27 + x28 - x29 <= 0
 c61:  x27 - x29 + x30 <= 0
 c62:  x28 - x29 <= 0
 c63:  - x29 + x30 <= 0
 c64:  x25 - x29 + x30 <= 0
 c65:  x27 - x29 + x30 <= 0
 c66:  - x29 + x30 <= 0
 c67:  x31 + x32 - x36 <= 0
 c68:  x31 + x35 - x36 <= 0
 c69:  x31 - x36 <= 0
 c70:  x32 + x33 - x36 <= 0
 c71:  x32 + x34 - x36 <= 0
 c72:  x33 + x34 - x36 <= 0
 c73:  x33 - x36 <= 0
 c74:  x34 + x35 - x36 <= 0
 c75:  x35 - x36 <= 0
 c76:  x31 - x36 <= 0
 c77:  x33 - x36 <= 0
 c78:  x35 - x36 <= 0
 c79:  - x1 + x2 + x5 + x6 >= -1
 c80:  - x2 + x3 + x4 - x8 >= -1
 c81:  - x3 + x4 + x6 - x15 >= -1
 c82:  - x4 + x5 - x22 >= -1
 c83:  - x5 + x6 - x29 >= -1
 c84:  x1 + x3 + x5 - x6 - x36 >= -1
 c85:  - x1 - x7 + x8 + x11 + x12 >= -1
 c86:  - x8 + x9 + x10 >= -1
 c87:  - x9 + x10 + x12 - x15 >= -1
 c88:  - x10 + x11 - x22 >= -1
 c89:  - x11 + x12 - x29 >= -1
 c90:  x7 + x9 + x11 - x12 - x36 >= -1
 c91:  - x1 - x13 + x14 + x17 + x18 >= -1
 c92:  - x8 - x14 + x15 + x16 >= -1
 c93:  - x15 + x16 + x18 >= -1
 c94:  - x16 + x17 - x22 >= -1
 c95:  - x17 + x18 - x29 >= -1
 c96:  x13 + x15 + x17 - x18 - x36 >= -1
 c97:  - x1 - x19 + x20 + x23 + x24 >= -1
 c98:  - x8 - x20 + x21 + x22 >= -1
 c99:  - x15 - x21 + x22 + x24 >= -1
 c100: - x22 + x23 >= -1
 c101: - x23 + x24 - x29 >= -1
 c102: x19 + x21 + x23 - x24 - x36 >= -1
 c103: - x1 - x25 + x26 + x29 + x30 >= -1
 c104: - x8 - x26 + x27 + x28 >= -1
 c105: - x15 - x27 + x28 + x30 >= -1
 c106: - x22 - x28 + x29 >= -1
 c107: - x29 + x30 >= -1
 c108: x25 + x27 + x29 - x30 - x36 >= -1
 c109: - x1 - x31 + x32 + x35 + x36 >= -1
 c110: - x8 - x32 + x33 + x34 >= -1
 c111: - x15 - x33 + x34 + x36 >= -1
 c112: - x22 - x34 + x35 >= -1
 c113: - x29 - x35 + x36 >= -1
 c114: x31 + x33 + x35 - x36 >= -1
 c115: - x1 + x2 <= 0
 c116: - x1 + x5 <= 0
 c117: - x1 + x6 <= 0
 c118: - x8 + x9 <= 0
 c119: - x8 + x10 <= 0
 c120: - x15 + x16 <= 0
 c121: - x15 + x18 <= 0
 c122: - x22 + x23 <= 0
 c123: - x29 + x30 <= 0
 c124: x31 - x36 <= 0
 c125: x33 - x36 <= 0
 c126: x35 - x36 <= 0
Bounds
 0 <= x1 <= 1
 0 <= x2 <= 1
 0 <= x3 <= 1
 0 <= x4 <= 1
 0 <= x5 <= 1
 0 <= x6 <= 1
 0 <= x7 <= 1
 0 <= x8 <= 1
 0 <= x9 <= 1
 0 <= x10 <= 1
 0 <= x11 <= 1
 0 <= x12 <= 1
 0 <= x13 <= 1
 0 <= x14 <= 1
 0 <= x15 <= 1
 0 <= x16 <= 1
 0 <= x17 <= 1
 0 <= x18 <= 1
 0 <= x19 <= 1
 0 <= x20 <= 1
 0 <= x21 <= 1
 0 <= x22 <= 1
 0 <= x23 <= 1
 0 <= x24 <= 1
 0 <= x25 <= 1
 0 <= x26 <= 1
 0 <= x27 <= 1
 0 <= x28 <= 1
 0 <= x29 <= 1
 0 <= x30 <= 1
 0 <= x31 <= 1
 0 <= x32 <= 1
 0 <= x33 <= 1
 0 <= x34 <= 1
 0 <= x35 <= 1
 0 <= x36 <= 1
Binaries
 x1  x2  x3  x4  x5  x6  x7  x8  x9  x10  x11  x12  x13  x14  x15  x16  x17 
 x18  x19  x20  x21  x22  x23  x24  x25  x26  x27  x28  x29  x30  x31  x32 
 x33  x34  x35  x36 
End
